20	5
0	9	3	2	8	6	4	1	7	14	5
1	2	12	20
2	2	10	20
3	2	13	15
4	1	20
5	1	10
6	2	17	15
7	1	16
8	2	11	16
9	1	17
10	1	19
11	2	12	19
12	1	9
13	1	20
14	2	10	11
15	1	18
16	1	10
17	1	21
18	1	21
19	1	21
20	1	21
21	0
0	0	0	0	0	0	0
1	4	1	2	2	1	4
2	3	1	2	2	1	1
3	3	3	2	1	5	3
4	4	3	4	2	3	2
5	5	3	1	4	4	3
6	10	5	4	3	5	4
7	5	1	5	3	1	3
8	3	3	4	2	5	4
9	3	1	2	5	3	2
10	8	2	1	3	4	1
11	2	5	5	3	1	5
12	8	1	5	1	3	3
13	5	4	4	4	3	1
14	5	1	2	2	4	2
15	5	2	4	5	1	4
16	7	1	4	5	5	5
17	8	1	1	5	2	3
18	10	4	5	1	4	3
19	5	1	5	4	3	2
20	5	4	5	3	4	1
21	0	0	0	0	0	0
9	11	10	13	12
